
Gurobi 9.5.2 (mac64[arm]) logging started Sun Apr  2 20:49:27 2023

Set parameter LogFile to value "./ccga_results/2023-04-02 20-49-26-394/MSP_TimeStampConvert_gurobi_log.txt"

Gurobi 9.5.2 (mac64[arm]) logging started Sun Apr  2 20:49:27 2023

Set parameter LogFile to value "./ccga_results/2023-04-02 20-49-26-394/MSP_TimeStampConvert_gurobi_log.txt"
Set parameter TimeLimit to value 180
Gurobi Optimizer version 9.5.2 build v9.5.2rc0 (mac64[arm])
Thread count: 8 physical cores, 8 logical processors, using up to 8 threads
Optimize a model with 100 rows, 77 columns and 242 nonzeros
Model fingerprint: 0xd266c645
Variable types: 5 continuous, 72 integer (72 binary)
Coefficient statistics:
  Matrix range     [1e+00, 1e+00]
  Objective range  [1e+00, 1e+00]
  Bounds range     [5e+02, 5e+02]
  RHS range        [1e+00, 1e+00]
Found heuristic solution: objective 2000.0000000

Explored 0 nodes (0 simplex iterations) in 0.00 seconds (0.00 work units)
Thread count was 1 (of 8 available processors)

Solution count 1: 2000 

Optimal solution found (tolerance 5.00e-02)
Best objective 2.000000000000e+03, best bound 2.000000000000e+03, gap 0.0000%

User-callback calls 21, time in user-callback 0.00 sec
Gurobi Optimizer version 9.5.2 build v9.5.2rc0 (mac64[arm])
Thread count: 8 physical cores, 8 logical processors, using up to 8 threads
Optimize a model with 353 rows, 161 columns and 1019 nonzeros
Model fingerprint: 0xfdcf2aee
Variable types: 81 continuous, 80 integer (80 binary)
Coefficient statistics:
  Matrix range     [3e-01, 8e+02]
  Objective range  [1e+00, 1e+00]
  Bounds range     [5e+02, 5e+02]
  RHS range        [1e+00, 1e+08]

MIP start from previous solve did not produce a new incumbent solution

Presolve removed 95 rows and 42 columns
Presolve time: 0.00s
Presolved: 258 rows, 119 columns, 830 nonzeros
Variable types: 59 continuous, 60 integer (60 binary)
Found heuristic solution: objective 1938.0520516

Explored 0 nodes (0 simplex iterations) in 0.00 seconds (0.00 work units)
Thread count was 8 (of 8 available processors)

Solution count 1: 1938.05 

Optimal solution found (tolerance 5.00e-02)
Best objective 1.938052051562e+03, best bound 2.000000000000e+03, gap 3.1964%

User-callback calls 378, time in user-callback 0.00 sec
Gurobi Optimizer version 9.5.2 build v9.5.2rc0 (mac64[arm])
Thread count: 8 physical cores, 8 logical processors, using up to 8 threads
Optimize a model with 606 rows, 245 columns and 1796 nonzeros
Model fingerprint: 0x59ea6ac5
Variable types: 157 continuous, 88 integer (88 binary)
Coefficient statistics:
  Matrix range     [3e-01, 8e+02]
  Objective range  [1e+00, 1e+00]
  Bounds range     [5e+02, 5e+02]
  RHS range        [1e+00, 1e+08]

MIP start from previous solve produced solution with objective 1878.07 (0.00s)
Loaded MIP start from previous solve with objective 1878.07

Presolve removed 162 rows and 71 columns
Presolve time: 0.01s
Presolved: 444 rows, 174 columns, 1480 nonzeros
Variable types: 114 continuous, 60 integer (60 binary)

Root relaxation: objective 2.000000e+03, 83 iterations, 0.00 seconds (0.00 work units)

    Nodes    |    Current Node    |     Objective Bounds      |     Work
 Expl Unexpl |  Obj  Depth IntInf | Incumbent    BestBd   Gap | It/Node Time

     0     0 2000.00000    0    2 1878.07030 2000.00000  6.49%     -    0s
H    0     0                    2000.0000000 2000.00000  0.00%     -    0s
     0     0 2000.00000    0    2 2000.00000 2000.00000  0.00%     -    0s

Explored 1 nodes (83 simplex iterations) in 0.02 seconds (0.01 work units)
Thread count was 8 (of 8 available processors)

Solution count 2: 2000 1878.07 

Optimal solution found (tolerance 5.00e-02)
Best objective 2.000000000000e+03, best bound 2.000000000000e+03, gap 0.0000%

User-callback calls 394, time in user-callback 0.00 sec
Gurobi Optimizer version 9.5.2 build v9.5.2rc0 (mac64[arm])
Thread count: 8 physical cores, 8 logical processors, using up to 8 threads
Optimize a model with 859 rows, 329 columns and 2573 nonzeros
Model fingerprint: 0xefb375a6
Variable types: 233 continuous, 96 integer (96 binary)
Coefficient statistics:
  Matrix range     [3e-01, 8e+02]
  Objective range  [1e+00, 1e+00]
  Bounds range     [5e+02, 5e+02]
  RHS range        [1e+00, 1e+08]

MIP start from previous solve produced solution with objective 1522.62 (0.00s)
Loaded MIP start from previous solve with objective 1522.62

Presolve removed 229 rows and 100 columns
Presolve time: 0.01s
Presolved: 630 rows, 229 columns, 2130 nonzeros
Variable types: 169 continuous, 60 integer (60 binary)

Root relaxation: objective 2.000000e+03, 82 iterations, 0.00 seconds (0.00 work units)

    Nodes    |    Current Node    |     Objective Bounds      |     Work
 Expl Unexpl |  Obj  Depth IntInf | Incumbent    BestBd   Gap | It/Node Time

     0     0 2000.00000    0    3 1522.61928 2000.00000  31.4%     -    0s
H    0     0                    2000.0000000 2000.00000  0.00%     -    0s
     0     0 2000.00000    0    3 2000.00000 2000.00000  0.00%     -    0s

Explored 1 nodes (82 simplex iterations) in 0.02 seconds (0.01 work units)
Thread count was 8 (of 8 available processors)

Solution count 2: 2000 1522.62 

Optimal solution found (tolerance 5.00e-02)
Best objective 2.000000000000e+03, best bound 2.000000000000e+03, gap 0.0000%

User-callback calls 395, time in user-callback 0.00 sec
Gurobi Optimizer version 9.5.2 build v9.5.2rc0 (mac64[arm])
Thread count: 8 physical cores, 8 logical processors, using up to 8 threads
Optimize a model with 1112 rows, 413 columns and 3350 nonzeros
Model fingerprint: 0x30cd717d
Variable types: 309 continuous, 104 integer (104 binary)
Coefficient statistics:
  Matrix range     [3e-01, 8e+02]
  Objective range  [1e+00, 1e+00]
  Bounds range     [5e+02, 5e+02]
  RHS range        [1e+00, 1e+08]

MIP start from previous solve did not produce a new incumbent solution

Presolve removed 296 rows and 129 columns
Presolve time: 0.01s
Presolved: 816 rows, 284 columns, 2780 nonzeros
Variable types: 224 continuous, 60 integer (60 binary)
Found heuristic solution: objective 646.2817710

Root relaxation: objective 1.838450e+03, 157 iterations, 0.00 seconds (0.00 work units)

    Nodes    |    Current Node    |     Objective Bounds      |     Work
 Expl Unexpl |  Obj  Depth IntInf | Incumbent    BestBd   Gap | It/Node Time

     0     0 1838.45048    0    5  646.28177 1838.45048   184%     -    0s
H    0     0                    1584.4494124 1838.45048  16.0%     -    0s
H    0     0                    1789.2108554 1838.45048  2.75%     -    0s

Explored 1 nodes (157 simplex iterations) in 0.03 seconds (0.02 work units)
Thread count was 8 (of 8 available processors)

Solution count 3: 1789.21 1584.45 646.282 

Optimal solution found (tolerance 5.00e-02)
Best objective 1.789210855449e+03, best bound 1.838450475249e+03, gap 2.7520%

User-callback calls 397, time in user-callback 0.00 sec
Gurobi Optimizer version 9.5.2 build v9.5.2rc0 (mac64[arm])
Thread count: 8 physical cores, 8 logical processors, using up to 8 threads
Optimize a model with 1365 rows, 497 columns and 4127 nonzeros
Model fingerprint: 0x432bef6f
Variable types: 385 continuous, 112 integer (112 binary)
Coefficient statistics:
  Matrix range     [3e-01, 8e+02]
  Objective range  [1e+00, 1e+00]
  Bounds range     [5e+02, 5e+02]
  RHS range        [1e+00, 1e+08]

MIP start from previous solve produced solution with objective 1353.17 (0.00s)
Loaded MIP start from previous solve with objective 1353.17

Presolve removed 363 rows and 158 columns
Presolve time: 0.01s
Presolved: 1002 rows, 339 columns, 3430 nonzeros
Variable types: 279 continuous, 60 integer (60 binary)

Root relaxation: objective 1.771092e+03, 377 iterations, 0.01 seconds (0.00 work units)

    Nodes    |    Current Node    |     Objective Bounds      |     Work
 Expl Unexpl |  Obj  Depth IntInf | Incumbent    BestBd   Gap | It/Node Time

     0     0 1771.09190    0   12 1353.16909 1771.09190  30.9%     -    0s
H    0     0                    1673.0455078 1771.09190  5.86%     -    0s
     0     0 1763.68536    0   22 1673.04551 1763.68536  5.42%     -    0s
H    0     0                    1703.1690942 1763.68536  3.55%     -    0s

Cutting planes:
  Gomory: 1
  MIR: 3
  Flow cover: 5

Explored 1 nodes (555 simplex iterations) in 0.09 seconds (0.04 work units)
Thread count was 8 (of 8 available processors)

Solution count 3: 1703.17 1673.05 1353.17 

Optimal solution found (tolerance 5.00e-02)
Best objective 1.703169094154e+03, best bound 1.763685356353e+03, gap 3.5532%

User-callback calls 426, time in user-callback 0.00 sec
Gurobi Optimizer version 9.5.2 build v9.5.2rc0 (mac64[arm])
Thread count: 8 physical cores, 8 logical processors, using up to 8 threads
Optimize a model with 1618 rows, 581 columns and 4904 nonzeros
Model fingerprint: 0x50ae8461
Variable types: 461 continuous, 120 integer (120 binary)
Coefficient statistics:
  Matrix range     [3e-01, 8e+02]
  Objective range  [1e+00, 1e+00]
  Bounds range     [5e+02, 5e+02]
  RHS range        [1e+00, 1e+08]

MIP start from previous solve did not produce a new incumbent solution

Presolve removed 430 rows and 187 columns
Presolve time: 0.01s
Presolved: 1188 rows, 394 columns, 4080 nonzeros
Variable types: 334 continuous, 60 integer (60 binary)
Found heuristic solution: objective 646.2817710

Root relaxation: objective 1.698141e+03, 497 iterations, 0.01 seconds (0.01 work units)

    Nodes    |    Current Node    |     Objective Bounds      |     Work
 Expl Unexpl |  Obj  Depth IntInf | Incumbent    BestBd   Gap | It/Node Time

     0     0 1698.14089    0   18  646.28177 1698.14089   163%     -    0s
H    0     0                    1591.5203279 1698.14089  6.70%     -    0s
H    0     0                    1646.2817710 1698.14089  3.15%     -    0s

Cutting planes:
  Gomory: 4
  MIR: 9
  Flow cover: 13

Explored 1 nodes (521 simplex iterations) in 0.05 seconds (0.05 work units)
Thread count was 8 (of 8 available processors)

Solution count 3: 1646.28 1591.52 646.282 

Optimal solution found (tolerance 5.00e-02)
Best objective 1.646281770954e+03, best bound 1.698140885477e+03, gap 3.1501%

User-callback calls 416, time in user-callback 0.00 sec
